56297
27, 31, 25, 11, 45, 16, 39, 36, 46, 15, 52, 2, 14, 12, 9, 10, 22, 29, 21, 23, 17, 48, 49, 19, 44, 8, 38, 32, 41, 5, 35, 24, 50, 20, 7, 37, 51, 40, 43, 13, 3, 6, 28, 26, 55, 53, 34, 54, 47, 4, 30, 18, 42, 33, 1
